#######################################
### Exact MIP solver for the HHCRSP ###
#######################################
-- Instance file: new-instances/HHCRSP_200_40_51_0.4_R_RC.txt
-- Max threads: 4
-- Time limit: 999999 seconds
-- Use initial solution: No
Trivial flow violations prevented generating 337431 variables.
Version identifier: 20.1.0.0 | 2020-11-10 | 9bedb6d68
CPXPARAM_Threads                                 4
CPXPARAM_TimeLimit                               999999
Parallel mode: deterministic, using up to 4 threads for concurrent optimization:
 * Starting dual Simplex on 1 thread...
 * Starting Barrier on 3 threads...
Tried aggregator 1 time.
LP Presolve eliminated 20040 rows and 4772 columns.
Reduced LP has 365142 rows, 348455 columns, and 6110752 nonzeros.
Presolve time = 12.97 sec. (1418.66 ticks)
Symmetry aggregator did 544712 additional substitutions.

Iteration log . . .
Iteration:     1   Dual objective     =             0.000000
Iteration:   919   Dual objective     =           297.333333

Dual crossover.
  Dual:  Fixing 846 variables.
      845 DMoves:  Infeasibility  4.66563722e-13  Objective  2.98333333e+02
        0 DMoves:  Infeasibility  2.14820651e-13  Objective  2.98333333e+02
  Dual:  Pushed 58, exchanged 788.
  Primal:  Fixing 581 variables.
      580 PMoves:  Infeasibility  2.77555756e-16  Objective  2.98333333e+02
        0 PMoves:  Infeasibility  9.99200722e-16  Objective  2.98333333e+02
  Primal:  Pushed 495, exchanged 86.

Dual simplex solved model.


Solution status from MIP model:
-- Processing time: 21.381 sec.
-- Memory used: 399.472 MB
-- Best bound: inf
-- Obj value: 298.333
-- Gap: inf%
-- Total distance: 895
-- Total tardiness: 0
-- Largest tardiness: 0
